This is Ipopt version 3.14.16, running with linear solver MUMPS 5.7.3.

Number of nonzeros in equality constraint Jacobian...:        0
Number of nonzeros in inequality constraint Jacobian.:      578
Number of nonzeros in Lagrangian Hessian.............:        0

Total number of variables............................:       17
                     variables with only lower bounds:        0
                variables with lower and upper bounds:       17
                     variables with only upper bounds:        0
Total number of equality constraints.................:        0
Total number of inequality constraints...............:       34
        inequality constraints with only lower bounds:        0
   inequality constraints with lower and upper bounds:        0
        inequality constraints with only upper bounds:       34

iter    objective    inf_pr   inf_du lg(mu)  ||d||  lg(rg) alpha_du alpha_pr  ls
   0  5.1806698e-03 2.52e+00 1.01e+00   0.0 0.00e+00    -  0.00e+00 0.00e+00   0
   1  5.3751218e-03 0.00e+00 1.02e-01  -5.9 2.28e-02    -  9.00e-01 1.00e+00h  1
   2  5.3720860e-03 0.00e+00 1.08e-02  -6.9 6.99e-04    -  9.89e-01 1.00e+00h  1
   3  5.3075001e-03 0.00e+00 8.05e-04  -4.7 2.19e-02    -  9.89e-01 1.00e+00h  1
   4  5.1888342e-03 0.00e+00 1.52e-04  -5.4 2.78e-02    -  1.00e+00 1.00e+00h  1
   5  5.1597209e-03 7.27e-03 1.83e-04  -6.2 4.07e-02    -  1.00e+00 1.00e+00h  1
   6  5.1582055e-03 4.48e-03 2.13e-04  -6.2 1.01e-02    -  1.00e+00 1.00e+00h  1
   7  5.1540491e-03 1.06e-03 3.63e-05  -6.7 6.88e-03    -  1.00e+00 1.00e+00h  1
   8  5.1523133e-03 3.60e-04 1.93e-05  -7.9 2.98e-03    -  1.00e+00 1.00e+00h  1
   9  5.1520744e-03 1.65e-04 1.18e-05  -8.6 1.73e-03    -  1.00e+00 1.00e+00h  1
iter    objective    inf_pr   inf_du lg(mu)  ||d||  lg(rg) alpha_du alpha_pr  ls
  10  5.1520443e-03 4.33e-05 9.07e-06  -9.4 3.26e-03    -  1.00e+00 1.00e+00h  1
  11  5.1520268e-03 6.06e-04 2.46e-05 -10.4 4.35e-03    -  1.00e+00 1.00e+00h  1
  12  5.1520270e-03 1.71e-04 2.10e-06  -9.4 1.74e-03    -  1.00e+00 1.00e+00h  1
  13  5.1520338e-03 5.06e-06 1.44e-06 -11.0 3.30e-04    -  1.00e+00 1.00e+00h  1

Number of Iterations....: 13

                                   (scaled)                 (unscaled)
Objective...............:   5.1520337671984292e-03    5.1520337671984292e-03
Dual infeasibility......:   1.4409546327483526e-06    1.4409546327483526e-06
Constraint violation....:   5.0576459864007485e-06    5.0576459864007485e-06
Variable bound violation:   4.5795690795102928e-08    4.5795690795102928e-08
Complementarity.........:   1.6617712104891336e-11    1.6617712104891336e-11
Overall NLP error.......:   5.0576459864007485e-06    5.0576459864007485e-06


Number of objective function evaluations             = 14
Number of objective gradient evaluations             = 14
Number of equality constraint evaluations            = 0
Number of inequality constraint evaluations          = 14
Number of equality constraint Jacobian evaluations   = 0
Number of inequality constraint Jacobian evaluations = 14
Number of Lagrangian Hessian evaluations             = 0
Total seconds in IPOPT                               = 16.111

EXIT: Optimal Solution Found.
